Ni   C    O    H                        
   1.0000000000000000     
     9.9560634791065894    0.0000000000000000    0.0000000000000000
     4.9780317395532903    8.6222038945967903    0.0000000000000000
     0.0000000000000000    0.0000000000000000   36.0968188426423993
   Ni   C    O    H 
    64     5     2     6
Selective dynamics
Direct
  0.0000000000000000  0.0000000000000000  0.4155490019999988   F   F   F
  0.2499999879999990  0.0000000000000000  0.4155490019999988   F   F   F
  0.4999999759999980  0.0000000000000000  0.4155490019999988   F   F   F
  0.7499999639999970  0.0000000000000000  0.4155490019999988   F   F   F
  0.9999999520000031  0.2499999879999990  0.4155490019999988   F   F   F
  0.2499999879999990  0.2499999879999990  0.4155490019999988   F   F   F
  0.4999999759999980  0.2499999879999990  0.4155490019999988   F   F   F
  0.7499999639999970  0.2499999879999990  0.4155490019999988   F   F   F
  0.9999999520000031  0.4999999759999980  0.4155490019999988   F   F   F
  0.2499999879999990  0.4999999759999980  0.4155490019999988   F   F   F
  0.4999999759999980  0.4999999759999980  0.4155490019999988   F   F   F
  0.7499999639999970  0.4999999759999980  0.4155490019999988   F   F   F
  0.9999999520000031  0.7499999639999970  0.4155490019999988   F   F   F
  0.2499999879999990  0.7499999639999970  0.4155490019999988   F   F   F
  0.4999999759999980  0.7499999639999970  0.4155490019999988   F   F   F
  0.7499999639999970  0.7499999639999970  0.4155490019999988   F   F   F
  0.0833329960000029  0.0833329960000029  0.4718500019999965   F   F   F
  0.3333329840000019  0.0833329960000029  0.4718500019999965   F   F   F
  0.5833329720000009  0.0833329960000029  0.4718500019999965   F   F   F
  0.8333329599999999  0.0833329960000029  0.4718500019999965   F   F   F
  0.0833329960000029  0.3333329840000019  0.4718500019999965   F   F   F
  0.3333329840000019  0.3333329840000019  0.4718500019999965   F   F   F
  0.5833329720000009  0.3333329840000019  0.4718500019999965   F   F   F
  0.8333329599999999  0.3333329840000019  0.4718500019999965   F   F   F
  0.0833329960000029  0.5833329720000009  0.4718500019999965   F   F   F
  0.3333329840000019  0.5833329720000009  0.4718500019999965   F   F   F
  0.5833329720000009  0.5833329720000009  0.4718500019999965   F   F   F
  0.8333329599999999  0.5833329720000009  0.4718500019999965   F   F   F
  0.0833329960000029  0.8333329599999999  0.4718500019999965   F   F   F
  0.3333329840000019  0.8333329599999999  0.4718500019999965   F   F   F
  0.5833329720000009  0.8333329599999999  0.4718500019999965   F   F   F
  0.8333329599999999  0.8333329599999999  0.4718500019999965   F   F   F
  0.9166669560000003  0.1666669920000032  0.5281500019999967   F   F   F
  0.1666669920000032  0.1666669920000032  0.5281500019999967   F   F   F
  0.4166669800000022  0.1666669920000032  0.5281500019999967   F   F   F
  0.6666669680000012  0.1666669920000032  0.5281500019999967   F   F   F
  0.9166669560000003  0.4166669800000022  0.5281500019999967   F   F   F
  0.1666669920000032  0.4166669800000022  0.5281500019999967   F   F   F
  0.4166669800000022  0.4166669800000022  0.5281500019999967   F   F   F
  0.6666669680000012  0.4166669800000022  0.5281500019999967   F   F   F
  0.9166669560000003  0.6666669680000012  0.5281500019999967   F   F   F
  0.1666669920000032  0.6666669680000012  0.5281500019999967   F   F   F
  0.4166669800000022  0.6666669680000012  0.5281500019999967   F   F   F
  0.6666669680000012  0.6666669680000012  0.5281500019999967   F   F   F
  0.9166669560000003  0.9166669560000003  0.5281500019999967   F   F   F
  0.1666669920000032  0.9166669560000003  0.5281500019999967   F   F   F
  0.4166669800000022  0.9166669560000003  0.5281500019999967   F   F   F
  0.6666669680000012  0.9166669560000003  0.5281500019999967   F   F   F
  0.9976496020000027  0.0012165099999990  0.5834163809999993   F   F   F
  0.2466762780000025  0.0041072630000016  0.5838275289999970   F   F   F
  0.4989147160000016  0.0025482369999992  0.5830075209999990   F   F   F
  0.7488055889999998  0.0007680619999988  0.5831370499999977   F   F   F
  0.0008639220000006  0.2491998400000028  0.5827942640000003   F   F   F
  0.2500683729999977  0.2497427839999986  0.5829537999999985   F   F   F
  0.4988063220000001  0.2481554470000020  0.5832513470000009   F   F   F
  0.7516380739999988  0.2447698699999989  0.5827660409999993   F   F   F
  0.0031401540000005  0.4992747009999974  0.5838836369999996   F   F   F
  0.2489550559999998  0.4998640510000030  0.5827170960000032   F   F   F
  0.4957477159999968  0.4936992539999991  0.5847234120000024   F   F   F
  0.7561098600000022  0.4951855739999971  0.5831545280000014   F   F   F
  0.9993320109999999  0.7516926139999995  0.5829190789999998   F   F   F
  0.2436677509999967  0.7527094349999999  0.5834729839999966   F   F   F
  0.4960033690000003  0.7554684859999981  0.5848609829999987   F   F   F
  0.7497700409999979  0.7534264629999967  0.5834669190000028   F   F   F
  0.6069596050000001  0.5954823659999988  0.6593662149999986   F   F   F
  0.7472602599999973  0.6082827440000003  0.6640249100000020   F   F   F
  0.7766884340000004  0.7285045160000010  0.6588176679999975   F   F   F
  0.0027522399999995  0.5024027600000025  0.6612452410000031   F   F   F
  0.9421846079999980  0.6600309479999993  0.6573324800000009   F   F   F
  0.5885555170000032  0.5768922729999986  0.6199822470000029   F   F   F
  0.8854503620000003  0.4700726239999966  0.6661536120000022   F   F   F
  0.1197154729999994  0.4052041819999985  0.6638348480000005   F   F   F
  0.0081069789999972  0.7198684509999964  0.6548889370000026   F   F   F
  0.6908775509999998  0.8511509269999991  0.6570900720000026   F   F   F
  0.5023389340000008  0.7008370149999976  0.6688725280000014   F   F   F
  0.6181848410000015  0.4932706960000033  0.6739000050000001   F   F   F
  0.3197170179999986  0.8435855170000011  0.6088869299999971   F   F   F

  0.00000000E+00  0.00000000E+00  0.00000000E+00
  0.00000000E+00  0.00000000E+00  0.00000000E+00
  0.00000000E+00  0.00000000E+00  0.00000000E+00
  0.00000000E+00  0.00000000E+00  0.00000000E+00
  0.00000000E+00  0.00000000E+00  0.00000000E+00
  0.00000000E+00  0.00000000E+00  0.00000000E+00
  0.00000000E+00  0.00000000E+00  0.00000000E+00
  0.00000000E+00  0.00000000E+00  0.00000000E+00
  0.00000000E+00  0.00000000E+00  0.00000000E+00
  0.00000000E+00  0.00000000E+00  0.00000000E+00
  0.00000000E+00  0.00000000E+00  0.00000000E+00
  0.00000000E+00  0.00000000E+00  0.00000000E+00
  0.00000000E+00  0.00000000E+00  0.00000000E+00
  0.00000000E+00  0.00000000E+00  0.00000000E+00
  0.00000000E+00  0.00000000E+00  0.00000000E+00
  0.00000000E+00  0.00000000E+00  0.00000000E+00
  0.00000000E+00  0.00000000E+00  0.00000000E+00
  0.00000000E+00  0.00000000E+00  0.00000000E+00
  0.00000000E+00  0.00000000E+00  0.00000000E+00
  0.00000000E+00  0.00000000E+00  0.00000000E+00
  0.00000000E+00  0.00000000E+00  0.00000000E+00
  0.00000000E+00  0.00000000E+00  0.00000000E+00
  0.00000000E+00  0.00000000E+00  0.00000000E+00
  0.00000000E+00  0.00000000E+00  0.00000000E+00
  0.00000000E+00  0.00000000E+00  0.00000000E+00
  0.00000000E+00  0.00000000E+00  0.00000000E+00
  0.00000000E+00  0.00000000E+00  0.00000000E+00
  0.00000000E+00  0.00000000E+00  0.00000000E+00
  0.00000000E+00  0.00000000E+00  0.00000000E+00
  0.00000000E+00  0.00000000E+00  0.00000000E+00
  0.00000000E+00  0.00000000E+00  0.00000000E+00
  0.00000000E+00  0.00000000E+00  0.00000000E+00
  0.00000000E+00  0.00000000E+00  0.00000000E+00
  0.00000000E+00  0.00000000E+00  0.00000000E+00
  0.00000000E+00  0.00000000E+00  0.00000000E+00
  0.00000000E+00  0.00000000E+00  0.00000000E+00
  0.00000000E+00  0.00000000E+00  0.00000000E+00
  0.00000000E+00  0.00000000E+00  0.00000000E+00
  0.00000000E+00  0.00000000E+00  0.00000000E+00
  0.00000000E+00  0.00000000E+00  0.00000000E+00
  0.00000000E+00  0.00000000E+00  0.00000000E+00
  0.00000000E+00  0.00000000E+00  0.00000000E+00
  0.00000000E+00  0.00000000E+00  0.00000000E+00
  0.00000000E+00  0.00000000E+00  0.00000000E+00
  0.00000000E+00  0.00000000E+00  0.00000000E+00
  0.00000000E+00  0.00000000E+00  0.00000000E+00
  0.00000000E+00  0.00000000E+00  0.00000000E+00
  0.00000000E+00  0.00000000E+00  0.00000000E+00
  0.00000000E+00  0.00000000E+00  0.00000000E+00
  0.00000000E+00  0.00000000E+00  0.00000000E+00
  0.00000000E+00  0.00000000E+00  0.00000000E+00
  0.00000000E+00  0.00000000E+00  0.00000000E+00
  0.00000000E+00  0.00000000E+00  0.00000000E+00
  0.00000000E+00  0.00000000E+00  0.00000000E+00
  0.00000000E+00  0.00000000E+00  0.00000000E+00
  0.00000000E+00  0.00000000E+00  0.00000000E+00
  0.00000000E+00  0.00000000E+00  0.00000000E+00
  0.00000000E+00  0.00000000E+00  0.00000000E+00
  0.00000000E+00  0.00000000E+00  0.00000000E+00
  0.00000000E+00  0.00000000E+00  0.00000000E+00
  0.00000000E+00  0.00000000E+00  0.00000000E+00
  0.00000000E+00  0.00000000E+00  0.00000000E+00
  0.00000000E+00  0.00000000E+00  0.00000000E+00
  0.00000000E+00  0.00000000E+00  0.00000000E+00
  0.00000000E+00  0.00000000E+00  0.00000000E+00
  0.00000000E+00  0.00000000E+00  0.00000000E+00
  0.00000000E+00  0.00000000E+00  0.00000000E+00
  0.00000000E+00  0.00000000E+00  0.00000000E+00
  0.00000000E+00  0.00000000E+00  0.00000000E+00
  0.00000000E+00  0.00000000E+00  0.00000000E+00
  0.00000000E+00  0.00000000E+00  0.00000000E+00
  0.00000000E+00  0.00000000E+00  0.00000000E+00
  0.00000000E+00  0.00000000E+00  0.00000000E+00
  0.00000000E+00  0.00000000E+00  0.00000000E+00
  0.00000000E+00  0.00000000E+00  0.00000000E+00
  0.00000000E+00  0.00000000E+00  0.00000000E+00
  0.00000000E+00  0.00000000E+00  0.00000000E+00
