Ni   C    O    H                        
   1.0000000000000000     
     9.9560634791065894    0.0000000000000000    0.0000000000000000
     4.9780317395532903    8.6222038945967903    0.0000000000000000
     0.0000000000000000    0.0000000000000000   36.0968188426423993
   Ni   C    O    H 
    64     5     2     6
Selective dynamics
Direct
  0.0000000000000000  0.0000000000000000  0.4155490019999988   F   F   F
  0.2499999879999990  0.0000000000000000  0.4155490019999988   F   F   F
  0.4999999759999980  0.0000000000000000  0.4155490019999988   F   F   F
  0.7499999639999970  0.0000000000000000  0.4155490019999988   F   F   F
  0.0000000000000000  0.2499999879999990  0.4155490019999988   F   F   F
  0.2499999879999990  0.2499999879999990  0.4155490019999988   F   F   F
  0.4999999759999980  0.2499999879999990  0.4155490019999988   F   F   F
  0.7499999639999970  0.2499999879999990  0.4155490019999988   F   F   F
  0.0000000000000000  0.4999999759999980  0.4155490019999988   F   F   F
  0.2499999879999990  0.4999999759999980  0.4155490019999988   F   F   F
  0.4999999759999980  0.4999999759999980  0.4155490019999988   F   F   F
  0.7499999639999970  0.4999999759999980  0.4155490019999988   F   F   F
  0.0000000000000000  0.7499999639999970  0.4155490019999988   F   F   F
  0.2499999879999990  0.7499999639999970  0.4155490019999988   F   F   F
  0.4999999759999980  0.7499999639999970  0.4155490019999988   F   F   F
  0.7499999639999970  0.7499999639999970  0.4155490019999988   F   F   F
  0.0833329960000029  0.0833329960000029  0.4718500019999965   F   F   F
  0.3333329840000019  0.0833329960000029  0.4718500019999965   F   F   F
  0.5833329720000009  0.0833329960000029  0.4718500019999965   F   F   F
  0.8333329599999999  0.0833329960000029  0.4718500019999965   F   F   F
  0.0833329960000029  0.3333329840000019  0.4718500019999965   F   F   F
  0.3333329840000019  0.3333329840000019  0.4718500019999965   F   F   F
  0.5833329720000009  0.3333329840000019  0.4718500019999965   F   F   F
  0.8333329599999999  0.3333329840000019  0.4718500019999965   F   F   F
  0.0833329960000029  0.5833329720000009  0.4718500019999965   F   F   F
  0.3333329840000019  0.5833329720000009  0.4718500019999965   F   F   F
  0.5833329720000009  0.5833329720000009  0.4718500019999965   F   F   F
  0.8333329599999999  0.5833329720000009  0.4718500019999965   F   F   F
  0.0833329960000029  0.8333329599999999  0.4718500019999965   F   F   F
  0.3333329840000019  0.8333329599999999  0.4718500019999965   F   F   F
  0.5833329720000009  0.8333329599999999  0.4718500019999965   F   F   F
  0.8333329599999999  0.8333329599999999  0.4718500019999965   F   F   F
  0.9166669560000003  0.1666669920000032  0.5281500019999967   F   F   F
  0.1666669920000032  0.1666669920000032  0.5281500019999967   F   F   F
  0.4166669800000022  0.1666669920000032  0.5281500019999967   F   F   F
  0.6666669680000012  0.1666669920000032  0.5281500019999967   F   F   F
  0.9166669560000003  0.4166669800000022  0.5281500019999967   F   F   F
  0.1666669920000032  0.4166669800000022  0.5281500019999967   F   F   F
  0.4166669800000022  0.4166669800000022  0.5281500019999967   F   F   F
  0.6666669680000012  0.4166669800000022  0.5281500019999967   F   F   F
  0.9166669560000003  0.6666669680000012  0.5281500019999967   F   F   F
  0.1666669920000032  0.6666669680000012  0.5281500019999967   F   F   F
  0.4166669800000022  0.6666669680000012  0.5281500019999967   F   F   F
  0.6666669680000012  0.6666669680000012  0.5281500019999967   F   F   F
  0.9166669560000003  0.9166669560000003  0.5281500019999967   F   F   F
  0.1666669920000032  0.9166669560000003  0.5281500019999967   F   F   F
  0.4166669800000022  0.9166669560000003  0.5281500019999967   F   F   F
  0.6666669680000012  0.9166669560000003  0.5281500019999967   F   F   F
  0.9997868069999996  0.0001360540000022  0.5833477079999980   F   F   F
  0.2485629680000017  0.0006337740000006  0.5829948370000011   F   F   F
  0.4998554639999995  0.0017851940000000  0.5827746739999995   F   F   F
  0.7497103110000012  0.0019147949999976  0.5828100040000024   F   F   F
  0.0001625940000025  0.2484062260000002  0.5827918499999996   F   F   F
  0.2531653420000026  0.2474713579999985  0.5829188270000003   F   F   F
  0.5009740579999971  0.2497349349999993  0.5834124799999998   F   F   F
  0.7497231859999971  0.2507522269999996  0.5828964669999976   F   F   F
  0.0104989140000029  0.4960555580000019  0.5865845860000007   F   F   F
  0.2549751379999989  0.4985393270000031  0.5827912110000000   F   F   F
  0.4995037759999974  0.4979694370000018  0.5823823180000005   F   F   F
  0.7443384629999983  0.5045100299999987  0.5852055780000001   F   F   F
  0.0011373030000001  0.7512765780000024  0.5831398970000023   F   F   F
  0.2477414539999998  0.7509139900000008  0.5826802670000006   F   F   F
  0.4948488329999989  0.7531493230000024  0.5848490400000017   F   F   F
  0.7497061899999977  0.7499490300000033  0.5840160320000010   F   F   F
  0.6119795789999998  0.5761528479999996  0.6602415289999968   F   F   F
  0.7531194580000005  0.5525662570000023  0.6390957859999986   F   F   F
  0.7826856430000007  0.6832617640000009  0.6365026389999997   F   F   F
  0.0126397720000000  0.4498087580000032  0.6419788380000000   F   F   F
  0.9511237780000030  0.6127398120000009  0.6372853290000009   F   F   F
  0.4840220580000008  0.7231535190000002  0.6481617529999966   F   F   F
  0.8934762949999993  0.4193591470000015  0.6507908339999986   F   F   F
  0.1244337119999983  0.3658912280000024  0.6535706450000021   F   F   F
  0.0120800299999999  0.6743403819999969  0.6450335859999967   F   F   F
  0.7050905740000033  0.7946511820000026  0.6497950250000031   F   F   F
  0.6285906689999976  0.5843838739999967  0.6903032370000020   F   F   F
  0.5886329880000005  0.4805345580000022  0.6551609220000003   F   F   F
  0.3932158869999967  0.7113025100000030  0.6431420199999991   F   F   F

  0.00000000E+00  0.00000000E+00  0.00000000E+00
  0.00000000E+00  0.00000000E+00  0.00000000E+00
  0.00000000E+00  0.00000000E+00  0.00000000E+00
  0.00000000E+00  0.00000000E+00  0.00000000E+00
  0.00000000E+00  0.00000000E+00  0.00000000E+00
  0.00000000E+00  0.00000000E+00  0.00000000E+00
  0.00000000E+00  0.00000000E+00  0.00000000E+00
  0.00000000E+00  0.00000000E+00  0.00000000E+00
  0.00000000E+00  0.00000000E+00  0.00000000E+00
  0.00000000E+00  0.00000000E+00  0.00000000E+00
  0.00000000E+00  0.00000000E+00  0.00000000E+00
  0.00000000E+00  0.00000000E+00  0.00000000E+00
  0.00000000E+00  0.00000000E+00  0.00000000E+00
  0.00000000E+00  0.00000000E+00  0.00000000E+00
  0.00000000E+00  0.00000000E+00  0.00000000E+00
  0.00000000E+00  0.00000000E+00  0.00000000E+00
  0.00000000E+00  0.00000000E+00  0.00000000E+00
  0.00000000E+00  0.00000000E+00  0.00000000E+00
  0.00000000E+00  0.00000000E+00  0.00000000E+00
  0.00000000E+00  0.00000000E+00  0.00000000E+00
  0.00000000E+00  0.00000000E+00  0.00000000E+00
  0.00000000E+00  0.00000000E+00  0.00000000E+00
  0.00000000E+00  0.00000000E+00  0.00000000E+00
  0.00000000E+00  0.00000000E+00  0.00000000E+00
  0.00000000E+00  0.00000000E+00  0.00000000E+00
  0.00000000E+00  0.00000000E+00  0.00000000E+00
  0.00000000E+00  0.00000000E+00  0.00000000E+00
  0.00000000E+00  0.00000000E+00  0.00000000E+00
  0.00000000E+00  0.00000000E+00  0.00000000E+00
  0.00000000E+00  0.00000000E+00  0.00000000E+00
  0.00000000E+00  0.00000000E+00  0.00000000E+00
  0.00000000E+00  0.00000000E+00  0.00000000E+00
  0.00000000E+00  0.00000000E+00  0.00000000E+00
  0.00000000E+00  0.00000000E+00  0.00000000E+00
  0.00000000E+00  0.00000000E+00  0.00000000E+00
  0.00000000E+00  0.00000000E+00  0.00000000E+00
  0.00000000E+00  0.00000000E+00  0.00000000E+00
  0.00000000E+00  0.00000000E+00  0.00000000E+00
  0.00000000E+00  0.00000000E+00  0.00000000E+00
  0.00000000E+00  0.00000000E+00  0.00000000E+00
  0.00000000E+00  0.00000000E+00  0.00000000E+00
  0.00000000E+00  0.00000000E+00  0.00000000E+00
  0.00000000E+00  0.00000000E+00  0.00000000E+00
  0.00000000E+00  0.00000000E+00  0.00000000E+00
  0.00000000E+00  0.00000000E+00  0.00000000E+00
  0.00000000E+00  0.00000000E+00  0.00000000E+00
  0.00000000E+00  0.00000000E+00  0.00000000E+00
  0.00000000E+00  0.00000000E+00  0.00000000E+00
  0.00000000E+00  0.00000000E+00  0.00000000E+00
  0.00000000E+00  0.00000000E+00  0.00000000E+00
  0.00000000E+00  0.00000000E+00  0.00000000E+00
  0.00000000E+00  0.00000000E+00  0.00000000E+00
  0.00000000E+00  0.00000000E+00  0.00000000E+00
  0.00000000E+00  0.00000000E+00  0.00000000E+00
  0.00000000E+00  0.00000000E+00  0.00000000E+00
  0.00000000E+00  0.00000000E+00  0.00000000E+00
  0.00000000E+00  0.00000000E+00  0.00000000E+00
  0.00000000E+00  0.00000000E+00  0.00000000E+00
  0.00000000E+00  0.00000000E+00  0.00000000E+00
  0.00000000E+00  0.00000000E+00  0.00000000E+00
  0.00000000E+00  0.00000000E+00  0.00000000E+00
  0.00000000E+00  0.00000000E+00  0.00000000E+00
  0.00000000E+00  0.00000000E+00  0.00000000E+00
  0.00000000E+00  0.00000000E+00  0.00000000E+00
  0.00000000E+00  0.00000000E+00  0.00000000E+00
  0.00000000E+00  0.00000000E+00  0.00000000E+00
  0.00000000E+00  0.00000000E+00  0.00000000E+00
  0.00000000E+00  0.00000000E+00  0.00000000E+00
  0.00000000E+00  0.00000000E+00  0.00000000E+00
  0.00000000E+00  0.00000000E+00  0.00000000E+00
  0.00000000E+00  0.00000000E+00  0.00000000E+00
  0.00000000E+00  0.00000000E+00  0.00000000E+00
  0.00000000E+00  0.00000000E+00  0.00000000E+00
  0.00000000E+00  0.00000000E+00  0.00000000E+00
  0.00000000E+00  0.00000000E+00  0.00000000E+00
  0.00000000E+00  0.00000000E+00  0.00000000E+00
  0.00000000E+00  0.00000000E+00  0.00000000E+00
